(declare-const a Real)
(declare-const b Real)
(declare-const c Real)
(assert (= (* a b c) 1))
(assert (> a 0))
(assert (> b 0))
(assert (> c 0))
(assert (not (<= (+ (* 184992 (pow a 4)) (* 184992 (pow b 4)) (* (pow (* (pow a (* 8897280 a)) (pow b (* 11367168 b))) (pow (+ (* 2965760 a) (* 3789056 b)) -1)) (+ (* -3789056 b) (* -2965760 a))) (* -7077888 (pow a (pow 3 -1)) (pow b (/ 11 3))) (* -3538944 (pow a (/ 10 3)) (pow b (/ 2 3))) (* 1109952 (pow a 2) (pow b 2)) (* 3583616 b (pow a 3)) (* 12308096 a (pow b 3))) 0)))
(check-sat)
(get-model)
(exit)